N=45;
W=58181;
values=[1945, 321, 2945, 4136, 1107, 1022, 1101, 2890, 47019, 1530, 3432, 2165, 1703, 1106, 370, 657, 962, 1060, 805, 689, 1513, 3878, 13504, 1865, 667, 1833, 16553, 1261, 2593, 1170, 794, 671, 7421, 6009, 1767, 2622, 831, 701, 5222, 3086, 900, 3121, 1029, 52555, 389];
weights=[4990, 1142, 7390, 10372, 3114, 2744, 3102, 7280, 112738, 3960, 8564, 5630, 4506, 3112, 1240, 2014, 2624, 3020, 2310, 2078, 3926, 9656, 32708, 4830, 2034, 4766, 40006, 3422, 6686, 3240, 2288, 2042, 18142, 14718, 4634, 6744, 2362, 2102, 12944, 7872, 2500, 7942, 2958, 126010, 1278];
